c This is the enc2 file generate by sty
p cnf 278 600
 1 2 0
 -1 -2 0
 5 6 0
 -5 -6 0
 11 12 0
 -11 -12 0
 13 14 0
 -13 -14 0
 15 16 0
 -15 -16 0
 17 18 0
 -17 -18 0
 19 20 0
 -19 -20 0
 25 26 0
 -25 -26 0
 27 28 0
 -27 -28 0
 29 30 0
 -29 -30 0
 31 32 0
 -31 -32 0
 33 34 0
 -33 -34 0
 35 36 0
 -35 -36 0
 37 38 0
 -37 -38 0
 39 40 0
 -39 -40 0
 41 42 0
 -41 -42 0
 43 44 0
 -43 -44 0
 45 46 0
 -45 -46 0
 47 48 0
 -47 -48 0
 49 50 0
 -49 -50 0
 51 52 0
 -51 -52 0
 57 58 0
 -57 -58 0
 59 60 0
 -59 -60 0
 61 62 0
 -61 -62 0
 63 64 0
 -63 -64 0
 65 66 0
 -65 -66 0
 67 68 0
 -67 -68 0
 69 70 0
 -69 -70 0
 71 72 0
 -71 -72 0
 73 74 0
 -73 -74 0
 75 76 0
 -75 -76 0
 77 78 0
 -77 -78 0
 79 80 0
 -79 -80 0
 81 82 0
 -81 -82 0
 83 84 0
 -83 -84 0
 85 86 0
 -85 -86 0
 87 88 0
 -87 -88 0
 89 90 0
 -89 -90 0
 91 92 0
 -91 -92 0
 93 94 0
 -93 -94 0
 95 96 0
 -95 -96 0
 97 98 0
 -97 -98 0
 99 100 0
 -99 -100 0
 101 102 0
 -101 -102 0
 103 104 0
 -103 -104 0
 113 114 0
 -113 -114 0
 115 116 0
 -115 -116 0
 117 118 0
 -117 -118 0
 119 120 0
 -119 -120 0
 121 122 0
 -121 -122 0
 123 124 0
 -123 -124 0
 125 126 0
 -125 -126 0
 135 136 0
 -135 -136 0
 137 138 0
 -137 -138 0
 139 140 0
 -139 -140 0
 149 150 0
 -149 -150 0
 151 152 0
 -151 -152 0
 153 154 0
 -153 -154 0
 155 156 0
 -155 -156 0
 165 166 0
 -165 -166 0
 175 176 0
 -175 -176 0
 177 178 0
 -177 -178 0
 179 180 0
 -179 -180 0
 181 182 0
 -181 -182 0
 183 184 0
 -183 -184 0
 185 186 0
 -185 -186 0
 187 188 0
 -187 -188 0
 189 190 0
 -189 -190 0
 199 200 0
 -199 -200 0
 201 202 0
 -201 -202 0
 203 204 0
 -203 -204 0
 205 206 0
 -205 -206 0
 207 208 0
 -207 -208 0
 209 210 0
 -209 -210 0
 211 212 0
 -211 -212 0
 213 214 0
 -213 -214 0
 215 216 0
 -215 -216 0
 217 218 0
 -217 -218 0
 219 220 0
 -219 -220 0
 221 222 0
 -221 -222 0
 223 224 0
 -223 -224 0
 225 226 0
 -225 -226 0
 235 236 0
 -235 -236 0
 237 238 0
 -237 -238 0
 239 240 0
 -239 -240 0
 241 242 0
 -241 -242 0
 251 252 0
 -251 -252 0
 253 254 0
 -253 -254 0
 255 256 0
 -255 -256 0
 257 258 0
 -257 -258 0
 259 260 0
 -259 -260 0
 261 262 0
 -261 -262 0
 263 264 0
 -263 -264 0
 265 266 0
 -265 -266 0
 267 268 0
 -267 -268 0
 269 270 0
 -269 -270 0
 271 272 0
 -271 -272 0
 273 274 0
 -273 -274 0
 275 276 0
 -275 -276 0
 277 278 0
 -277 -278 0
 -1 3 0
 -2 4 0
 -5 -1 7 0
 -5 -2 8 0
 -6 -1 9 0
 -6 -2 10 0
 -11 -6 0
 -12 -5 0
 -13 -11 0
 -14 -12 0
 -15 -13 0
 -16 -14 0
 -17 -16 0
 -18 -15 0
 -19 -17 21 0
 -19 -18 22 0
 -20 -17 23 0
 -20 -18 24 0
 -25 -19 0
 -26 -20 0
 -27 -26 0
 -28 -25 0
 -29 -27 0
 -30 -28 0
 -31 -1 0
 -32 -2 0
 -33 -32 -5 0
 -34 -31 -5 0
 -34 -31 -6 0
 -34 -32 -6 0
 -35 -33 -11 0
 -35 -34 -12 0
 -36 -34 -11 0
 -36 -33 -12 0
 -37 -36 -14 0
 -38 -35 -13 0
 -38 -36 -13 0
 -38 -35 -14 0
 -39 -38 -15 0
 -39 -37 -16 0
 -39 -38 -16 0
 -40 -37 -15 0
 -41 -39 -18 0
 -42 -39 -17 0
 -42 -40 -17 0
 -42 -40 -18 0
 -43 -41 -19 0
 -43 -41 -20 0
 -44 -42 -19 0
 -44 -42 -20 0
 -45 -43 -25 0
 -45 -44 -25 0
 -46 -43 -26 0
 -46 -44 -26 0
 -47 -45 -28 0
 -48 -45 -27 0
 -48 -46 -27 0
 -48 -46 -28 0
 -49 -48 -29 0
 -49 -47 -30 0
 -49 -48 -30 0
 -50 -47 -29 0
 -51 -31 53 0
 -51 -32 54 0
 -52 -31 55 0
 -52 -32 56 0
 -57 -51 -33 0
 -57 -52 -33 0
 -58 -51 -34 0
 -58 -52 -34 0
 -59 -58 -35 0
 -60 -57 -35 0
 -60 -57 -36 0
 -60 -58 -36 0
 -61 -60 -37 0
 -61 -59 -38 0
 -62 -59 -37 0
 -62 -60 -38 0
 -63 -62 -39 0
 -64 -61 -39 0
 -64 -61 -40 0
 -64 -62 -40 0
 -65 -63 -41 0
 -65 -64 -41 0
 -66 -63 -42 0
 -66 -64 -42 0
 -67 -65 -43 0
 -67 -65 -44 0
 -67 -66 -44 0
 -68 -66 -43 0
 -69 -67 -45 0
 -69 -68 -45 0
 -69 -67 -46 0
 -70 -68 -46 0
 -71 -69 -47 0
 -71 -70 -47 0
 -72 -69 -48 0
 -72 -70 -48 0
 -73 -71 -50 0
 -74 -71 -49 0
 -74 -72 -49 0
 -74 -72 -50 0
 -75 -52 0
 -76 -51 0
 -77 -76 -57 0
 -77 -75 -58 0
 -78 -75 -57 0
 -78 -76 -58 0
 -79 -77 -59 0
 -79 -78 -59 0
 -79 -78 -60 0
 -80 -77 -60 0
 -81 -80 -61 0
 -81 -79 -62 0
 -81 -80 -62 0
 -82 -79 -61 0
 -83 -81 -63 0
 -83 -82 -63 0
 -84 -81 -64 0
 -84 -82 -64 0
 -85 -83 -66 0
 -86 -83 -65 0
 -86 -84 -65 0
 -86 -84 -66 0
 -87 -86 -67 0
 -88 -85 -67 0
 -88 -85 -68 0
 -88 -86 -68 0
 -89 -87 -69 0
 -89 -88 -69 0
 -89 -88 -70 0
 -90 -87 -70 0
 -91 -89 -71 0
 -91 -90 -71 0
 -91 -89 -72 0
 -92 -90 -72 0
 -93 -91 -73 0
 -93 -92 -73 0
 -93 -91 -74 0
 -94 -92 -74 0
 -95 -75 0
 -96 -76 0
 -97 -96 -78 0
 -98 -95 -77 0
 -98 -96 -77 0
 -98 -95 -78 0
 -99 -97 -79 0
 -99 -97 -80 0
 -99 -98 -80 0
 -100 -98 -79 0
 -101 -100 -81 0
 -101 -100 -82 0
 -102 -99 -81 0
 -102 -99 -82 0
 -103 -101 -83 105 0
 -103 -102 -83 106 0
 -103 -101 -84 107 0
 -103 -102 -84 108 0
 -104 -101 -83 109 0
 -104 -102 -83 110 0
 -104 -101 -84 111 0
 -104 -102 -84 112 0
 -113 -103 -85 0
 -113 -104 -85 0
 -114 -103 -86 0
 -114 -104 -86 0
 -115 -113 -87 0
 -115 -114 -87 0
 -115 -113 -88 0
 -116 -114 -88 0
 -117 -115 -89 0
 -117 -116 -89 0
 -118 -115 -90 0
 -118 -116 -90 0
 -119 -117 -92 0
 -119 -118 -92 0
 -120 -117 -91 0
 -120 -118 -91 0
 -121 -119 -93 0
 -121 -120 -94 0
 -122 -120 -93 0
 -122 -119 -94 0
 -123 -95 0
 -124 -96 0
 -125 -123 -97 127 0
 -125 -124 -97 128 0
 -125 -123 -98 129 0
 -125 -124 -98 130 0
 -126 -123 -97 131 0
 -126 -124 -97 132 0
 -126 -123 -98 133 0
 -126 -124 -98 134 0
 -135 -126 -99 0
 -136 -125 -99 0
 -136 -125 -100 0
 -136 -126 -100 0
 -137 -136 -102 0
 -138 -135 -101 0
 -138 -136 -101 0
 -138 -135 -102 0
 -139 -137 -103 141 0
 -139 -138 -103 142 0
 -139 -137 -104 143 0
 -139 -138 -104 144 0
 -140 -137 -103 145 0
 -140 -138 -103 146 0
 -140 -137 -104 147 0
 -140 -138 -104 148 0
 -149 -139 -113 0
 -149 -139 -114 0
 -149 -140 -114 0
 -150 -140 -113 0
 -151 -149 -115 0
 -152 -150 -115 0
 -152 -149 -116 0
 -152 -150 -116 0
 -153 -152 -118 0
 -154 -151 -117 0
 -154 -152 -117 0
 -154 -151 -118 0
 -155 -153 -119 157 0
 -155 -154 -119 158 0
 -155 -153 -120 159 0
 -155 -154 -120 160 0
 -156 -153 -119 161 0
 -156 -154 -119 162 0
 -156 -153 -120 163 0
 -156 -154 -120 164 0
 -165 -155 -121 167 0
 -165 -156 -121 168 0
 -165 -155 -122 169 0
 -165 -156 -122 170 0
 -166 -155 -121 171 0
 -166 -156 -121 172 0
 -166 -155 -122 173 0
 -166 -156 -122 174 0
 -175 -123 0
 -176 -124 0
 -177 -175 -125 0
 -177 -176 -125 0
 -177 -176 -126 0
 -178 -175 -126 0
 -179 -178 -135 0
 -179 -177 -136 0
 -179 -178 -136 0
 -180 -177 -135 0
 -181 -179 -138 0
 -182 -179 -137 0
 -182 -180 -137 0
 -182 -180 -138 0
 -183 -182 -139 0
 -184 -181 -139 0
 -184 -181 -140 0
 -184 -182 -140 0
 -185 -183 -149 0
 -185 -184 -150 0
 -186 -184 -149 0
 -186 -183 -150 0
 -187 -186 -151 0
 -188 -185 -151 0
 -188 -185 -152 0
 -188 -186 -152 0
 -189 -187 -153 191 0
 -189 -188 -153 192 0
 -189 -187 -154 193 0
 -189 -188 -154 194 0
 -190 -187 -153 195 0
 -190 -188 -153 196 0
 -190 -187 -154 197 0
 -190 -188 -154 198 0
 -199 -189 -155 0
 -199 -190 -155 0
 -200 -189 -156 0
 -200 -190 -156 0
 -201 -200 -165 0
 -201 -199 -166 0
 -202 -199 -165 0
 -202 -200 -166 0
 -203 -176 0
 -204 -175 0
 -205 -204 -177 0
 -206 -203 -177 0
 -206 -203 -178 0
 -206 -204 -178 0
 -207 -206 -179 0
 -207 -206 -180 0
 -208 -205 -179 0
 -208 -205 -180 0
 -209 -208 -182 0
 -210 -207 -181 0
 -210 -208 -181 0
 -210 -207 -182 0
 -211 -209 -184 0
 -211 -210 -184 0
 -212 -209 -183 0
 -212 -210 -183 0
 -213 -211 -185 0
 -213 -211 -186 0
 -214 -212 -185 0
 -214 -212 -186 0
 -215 -214 -188 0
 -216 -213 -187 0
 -216 -214 -187 0
 -216 -213 -188 0
 -217 -216 -189 0
 -217 -215 -190 0
 -218 -215 -189 0
 -218 -216 -190 0
 -219 -218 -199 0
 -219 -217 -200 0
 -219 -218 -200 0
 -220 -217 -199 0
 -221 -219 -201 0
 -222 -220 -201 0
 -222 -219 -202 0
 -222 -220 -202 0
 -223 -204 0
 -224 -203 0
 -225 -223 -205 227 0
 -225 -224 -205 228 0
 -225 -223 -206 229 0
 -225 -224 -206 230 0
 -226 -223 -205 231 0
 -226 -224 -205 232 0
 -226 -223 -206 233 0
 -226 -224 -206 234 0
 -235 -225 -207 0
 -235 -226 -207 0
 -235 -226 -208 0
 -236 -225 -208 0
 -237 -235 -209 0
 -237 -235 -210 0
 -237 -236 -210 0
 -238 -236 -209 0
 -239 -237 -211 0
 -239 -238 -211 0
 -240 -237 -212 0
 -240 -238 -212 0
 -241 -239 -213 243 0
 -241 -240 -213 244 0
 -241 -239 -214 245 0
 -241 -240 -214 246 0
 -242 -239 -213 247 0
 -242 -240 -213 248 0
 -242 -239 -214 249 0
 -242 -240 -214 250 0
 -251 -242 -215 0
 -251 -242 -216 0
 -252 -241 -215 0
 -252 -241 -216 0
 -253 -251 -217 0
 -254 -252 -217 0
 -254 -251 -218 0
 -254 -252 -218 0
 -255 -254 -220 0
 -256 -253 -219 0
 -256 -254 -219 0
 -256 -253 -220 0
 -257 -256 -221 0
 -257 -255 -222 0
 -258 -255 -221 0
 -258 -256 -222 0
 -259 -223 0
 -260 -224 0
 -261 -259 -225 0
 -261 -260 -225 0
 -261 -259 -226 0
 -262 -260 -226 0
 -263 -262 -236 0
 -264 -261 -235 0
 -264 -262 -235 0
 -264 -261 -236 0
 -265 -263 -237 0
 -265 -264 -238 0
 -266 -264 -237 0
 -266 -263 -238 0
 -267 -265 -239 0
 -268 -266 -239 0
 -268 -265 -240 0
 -268 -266 -240 0
 -269 -267 -241 0
 -270 -268 -241 0
 -270 -267 -242 0
 -270 -268 -242 0
 -271 -270 -251 0
 -271 -270 -252 0
 -272 -269 -251 0
 -272 -269 -252 0
 -273 -272 -253 0
 -273 -271 -254 0
 -274 -271 -253 0
 -274 -272 -254 0
 -275 -273 -255 0
 -275 -273 -256 0
 -276 -274 -255 0
 -276 -274 -256 0
 -277 -275 -257 0
 -277 -276 -257 0
 -277 -275 -258 0
 -278 -276 -258 0
